c Result of efficient AIG-to-CNF conversion using package CNF
p cnf 606 2322
-2 3 424 426 428 0
-2 3 -424 -426 428 0
2 -428 0
2 -424 426 0
2 -3 0
2 424 -426 0
3 4 -300 0
3 -4 300 0
-3 -4 -300 0
-3 4 300 0
4 5 -51 0
4 -5 51 0
-4 -5 -51 0
-4 5 51 0
5 6 -37 0
5 -6 37 0
-5 -6 -37 0
-5 6 37 0
6 -543 -575 0
6 -575 -7 0
6 -543 -7 0
-6 543 7 0
-6 575 7 0
-6 543 575 0
7 -544 -576 0
7 -576 -8 0
7 -544 -8 0
-7 544 8 0
-7 576 8 0
-7 544 576 0
8 -545 -577 0
8 -577 -9 0
8 -545 -9 0
-8 545 9 0
-8 577 9 0
-8 545 577 0
9 -546 -578 0
9 -578 -10 0
9 -546 -10 0
-9 546 10 0
-9 578 10 0
-9 546 578 0
10 -547 -579 0
10 -579 -11 0
10 -547 -11 0
-10 547 11 0
-10 579 11 0
-10 547 579 0
11 -548 -580 0
11 -580 -12 0
11 -548 -12 0
-11 548 12 0
-11 580 12 0
-11 548 580 0
12 -549 -581 0
12 -581 -13 0
12 -549 -13 0
-12 549 13 0
-12 581 13 0
-12 549 581 0
13 -550 -582 0
13 -582 -14 0
13 -550 -14 0
-13 550 14 0
-13 582 14 0
-13 550 582 0
14 -551 -583 0
14 -583 -15 0
14 -551 -15 0
-14 551 15 0
-14 583 15 0
-14 551 583 0
15 -552 -584 0
15 -584 -16 0
15 -552 -16 0
-15 552 16 0
-15 584 16 0
-15 552 584 0
16 -553 -585 0
16 -585 -17 0
16 -553 -17 0
-16 553 17 0
-16 585 17 0
-16 553 585 0
17 -554 -586 0
17 -586 -18 0
17 -554 -18 0
-17 554 18 0
-17 586 18 0
-17 554 586 0
18 -555 -587 0
18 -587 -19 0
18 -555 -19 0
-18 555 19 0
-18 587 19 0
-18 555 587 0
19 -556 -588 0
19 -588 -20 0
19 -556 -20 0
-19 556 20 0
-19 588 20 0
-19 556 588 0
20 -557 -589 0
20 -589 -21 0
20 -557 -21 0
-20 557 21 0
-20 589 21 0
-20 557 589 0
21 -558 -590 0
21 -590 -22 0
21 -558 -22 0
-21 558 22 0
-21 590 22 0
-21 558 590 0
22 -559 -591 0
22 -591 -23 0
22 -559 -23 0
-22 559 23 0
-22 591 23 0
-22 559 591 0
23 -560 -592 0
23 -592 -24 0
23 -560 -24 0
-23 560 24 0
-23 592 24 0
-23 560 592 0
24 -561 -593 0
24 -593 -25 0
24 -561 -25 0
-24 561 25 0
-24 593 25 0
-24 561 593 0
25 -562 -594 0
25 -594 -26 0
25 -562 -26 0
-25 562 26 0
-25 594 26 0
-25 562 594 0
26 -563 -595 0
26 -595 -27 0
26 -563 -27 0
-26 563 27 0
-26 595 27 0
-26 563 595 0
27 -564 -596 0
27 -596 -28 0
27 -564 -28 0
-27 564 28 0
-27 596 28 0
-27 564 596 0
28 -565 -597 0
28 -597 -29 0
28 -565 -29 0
-28 565 29 0
-28 597 29 0
-28 565 597 0
29 -566 -598 0
29 -598 -30 0
29 -566 -30 0
-29 566 30 0
-29 598 30 0
-29 566 598 0
30 -567 -599 0
30 -599 -31 0
30 -567 -31 0
-30 567 31 0
-30 599 31 0
-30 567 599 0
31 -568 -600 0
31 -600 -32 0
31 -568 -32 0
-31 568 32 0
-31 600 32 0
-31 568 600 0
32 -569 -601 0
32 -601 -33 0
32 -569 -33 0
-32 569 33 0
-32 601 33 0
-32 569 601 0
33 -570 -602 0
33 -602 -34 0
33 -570 -34 0
-33 570 34 0
-33 602 34 0
-33 570 602 0
34 -571 -603 0
34 -603 -35 0
34 -571 -35 0
-34 571 35 0
-34 603 35 0
-34 571 603 0
35 -572 -604 0
35 -604 -36 0
35 -572 -36 0
-35 572 36 0
-35 604 36 0
-35 572 604 0
36 -573 -605 0
-36 573 0
-36 605 0
37 -542 38 0
37 542 -38 0
-37 542 38 0
-37 -542 -38 0
-38 574 -601 0
-38 574 39 0
-38 574 -47 0
38 -574 0
38 601 -39 47 0
39 -40 42 0
-39 40 0
-39 -42 0
40 602 -41 0
-40 -602 0
-40 41 0
41 -542 603 604 605 0
-41 -605 0
-41 -604 0
-41 542 0
-41 -603 0
-42 578 43 44 45 0
42 -578 0
42 -45 0
42 -44 0
42 -43 0
-43 582 585 589 0
43 -582 0
43 -589 0
43 -585 0
-44 576 577 587 588 0
44 -588 0
44 -587 0
44 -576 0
44 -577 0
-45 580 583 584 46 0
45 -46 0
45 -584 0
45 -580 0
45 -583 0
-46 575 579 581 0
46 -575 0
46 -581 0
46 -579 0
-47 586 590 48 49 0
47 -586 0
47 -49 0
47 -48 0
47 -590 0
-48 592 593 596 597 0
48 -597 0
48 -596 0
48 -592 0
48 -593 0
-49 591 595 598 50 0
49 -50 0
49 -598 0
49 -591 0
49 -595 0
-50 594 599 600 0
50 -594 0
50 -600 0
50 -599 0
51 -52 -60 0
51 -52 -58 0
51 -58 -60 0
-51 58 60 0
-51 52 60 0
-51 52 58 0
52 -53 56 0
-52 53 0
-52 -56 0
53 602 -54 0
-53 -602 0
-53 54 0
54 603 -55 0
-54 -603 0
-54 55 0
55 -542 604 -605 0
55 -543 604 605 0
-55 -604 0
-55 542 -605 0
-55 543 605 0
-56 601 57 0
56 -601 0
56 -57 0
-57 574 42 47 0
57 -47 0
57 -42 0
57 -574 0
-58 -7 -59 0
-58 7 59 0
58 7 -59 0
58 -7 59 0
59 543 -575 0
59 -543 575 0
-59 -543 -575 0
-59 543 575 0
60 -61 -68 0
60 -61 -66 0
60 -66 -68 0
-60 66 68 0
-60 61 68 0
-60 61 66 0
61 56 -62 0
-61 -56 0
-61 62 0
62 602 -63 0
-62 -602 0
-62 63 0
63 603 -64 0
-63 -603 0
-63 64 0
64 604 -65 0
64 -542 -604 605 0
-64 604 65 0
-64 -604 -605 0
-64 542 -604 0
65 -544 605 0
65 -543 -605 0
-65 544 605 0
-65 543 -605 0
-66 -8 -67 0
-66 8 67 0
66 8 -67 0
66 -8 67 0
67 544 -576 0
67 -544 576 0
-67 -544 -576 0
-67 544 576 0
68 -69 -77 0
68 -69 -75 0
68 -75 -77 0
-68 75 77 0
-68 69 77 0
-68 69 75 0
69 56 -70 0
-69 -56 0
-69 70 0
70 602 -71 0
-70 -602 0
-70 71 0
71 603 -72 0
-71 -603 0
-71 72 0
72 -604 -73 0
72 604 -74 0
-72 604 74 0
-72 -604 73 0
73 -543 605 0
73 -542 -605 0
-73 543 605 0
-73 542 -605 0
74 -545 605 0
74 -544 -605 0
-74 545 605 0
-74 544 -605 0
-75 -9 -76 0
-75 9 76 0
75 9 -76 0
75 -9 76 0
76 545 -577 0
76 -545 577 0
-76 -545 -577 0
-76 545 577 0
77 -78 -86 0
77 -78 -84 0
77 -84 -86 0
-77 84 86 0
-77 78 86 0
-77 78 84 0
78 56 -79 0
-78 -56 0
-78 79 0
79 602 -80 0
-79 -602 0
-79 80 0
80 -603 -81 0
80 603 -82 0
-80 603 82 0
-80 -603 81 0
81 -542 604 605 0
-81 542 0
-81 -605 0
-81 -604 0
82 -604 -65 0
82 604 -83 0
-82 604 83 0
-82 -604 65 0
83 -546 605 0
83 -545 -605 0
-83 546 605 0
-83 545 -605 0
-84 -10 -85 0
-84 10 85 0
84 10 -85 0
84 -10 85 0
85 546 -578 0
85 -546 578 0
-85 -546 -578 0
-85 546 578 0
86 -87 -94 0
86 -87 -92 0
86 -92 -94 0
-86 92 94 0
-86 87 94 0
-86 87 92 0
87 56 -88 0
-87 -56 0
-87 88 0
88 602 -89 0
-88 -602 0
-88 89 0
89 -603 -55 0
89 603 -90 0
-89 603 90 0
-89 -603 55 0
90 -604 -74 0
90 604 -91 0
-90 604 91 0
-90 -604 74 0
91 -547 605 0
91 -546 -605 0
-91 547 605 0
-91 546 -605 0
-92 -11 -93 0
-92 11 93 0
92 11 -93 0
92 -11 93 0
93 547 -579 0
93 -547 579 0
-93 -547 -579 0
-93 547 579 0
94 -95 -102 0
94 -95 -100 0
94 -100 -102 0
-94 100 102 0
-94 95 102 0
-94 95 100 0
95 56 -96 0
-95 -56 0
-95 96 0
96 602 -97 0
-96 -602 0
-96 97 0
97 -603 -64 0
97 603 -98 0
-97 603 98 0
-97 -603 64 0
98 -604 -83 0
98 604 -99 0
-98 604 99 0
-98 -604 83 0
99 -548 605 0
99 -547 -605 0
-99 548 605 0
-99 547 -605 0
-100 -12 -101 0
-100 12 101 0
100 12 -101 0
100 -12 101 0
101 548 -580 0
101 -548 580 0
-101 -548 -580 0
-101 548 580 0
102 -103 -110 0
102 -103 -108 0
102 -108 -110 0
-102 108 110 0
-102 103 110 0
-102 103 108 0
103 56 -104 0
-103 -56 0
-103 104 0
104 602 -105 0
-104 -602 0
-104 105 0
105 -603 -72 0
105 603 -106 0
-105 603 106 0
-105 -603 72 0
106 -604 -91 0
106 604 -107 0
-106 604 107 0
-106 -604 91 0
107 -549 605 0
107 -548 -605 0
-107 549 605 0
-107 548 -605 0
-108 -13 -109 0
-108 13 109 0
108 13 -109 0
108 -13 109 0
109 549 -581 0
109 -549 581 0
-109 -549 -581 0
-109 549 581 0
110 -111 -118 0
110 -111 -116 0
110 -116 -118 0
-110 116 118 0
-110 111 118 0
-110 111 116 0
111 56 -112 0
-111 -56 0
-111 112 0
112 -602 -41 0
112 602 -113 0
-112 602 113 0
-112 -602 41 0
113 -603 -82 0
113 603 -114 0
-113 603 114 0
-113 -603 82 0
114 -604 -99 0
114 604 -115 0
-114 604 115 0
-114 -604 99 0
115 -550 605 0
115 -549 -605 0
-115 550 605 0
-115 549 -605 0
-116 -14 -117 0
-116 14 117 0
116 14 -117 0
116 -14 117 0
117 550 -582 0
117 -550 582 0
-117 -550 -582 0
-117 550 582 0
118 -119 -126 0
118 -119 -124 0
118 -124 -126 0
-118 124 126 0
-118 119 126 0
-118 119 124 0
119 56 -120 0
-119 -56 0
-119 120 0
120 -602 -54 0
120 602 -121 0
-120 602 121 0
-120 -602 54 0
121 -603 -90 0
121 603 -122 0
-121 603 122 0
-121 -603 90 0
122 -604 -107 0
122 604 -123 0
-122 604 123 0
-122 -604 107 0
123 -551 605 0
123 -550 -605 0
-123 551 605 0
-123 550 -605 0
-124 -15 -125 0
-124 15 125 0
124 15 -125 0
124 -15 125 0
125 551 -583 0
125 -551 583 0
-125 -551 -583 0
-125 551 583 0
126 -127 -134 0
126 -127 -132 0
126 -132 -134 0
-126 132 134 0
-126 127 134 0
-126 127 132 0
127 56 -128 0
-127 -56 0
-127 128 0
128 -602 -63 0
128 602 -129 0
-128 602 129 0
-128 -602 63 0
129 -603 -98 0
129 603 -130 0
-129 603 130 0
-129 -603 98 0
130 -604 -115 0
130 604 -131 0
-130 604 131 0
-130 -604 115 0
131 -552 605 0
131 -551 -605 0
-131 552 605 0
-131 551 -605 0
-132 -16 -133 0
-132 16 133 0
132 16 -133 0
132 -16 133 0
133 552 -584 0
133 -552 584 0
-133 -552 -584 0
-133 552 584 0
134 -135 -142 0
134 -135 -140 0
134 -140 -142 0
-134 140 142 0
-134 135 142 0
-134 135 140 0
135 56 -136 0
-135 -56 0
-135 136 0
136 -602 -71 0
136 602 -137 0
-136 602 137 0
-136 -602 71 0
137 -603 -106 0
137 603 -138 0
-137 603 138 0
-137 -603 106 0
138 -604 -123 0
138 604 -139 0
-138 604 139 0
-138 -604 123 0
139 -553 605 0
139 -552 -605 0
-139 553 605 0
-139 552 -605 0
-140 -17 -141 0
-140 17 141 0
140 17 -141 0
140 -17 141 0
141 553 -585 0
141 -553 585 0
-141 -553 -585 0
-141 553 585 0
142 -143 -150 0
142 -143 -148 0
142 -148 -150 0
-142 148 150 0
-142 143 150 0
-142 143 148 0
143 56 -144 0
-143 -56 0
-143 144 0
144 -602 -80 0
144 602 -145 0
-144 602 145 0
-144 -602 80 0
145 -603 -114 0
145 603 -146 0
-145 603 146 0
-145 -603 114 0
146 -604 -131 0
146 604 -147 0
-146 604 147 0
-146 -604 131 0
147 -554 605 0
147 -553 -605 0
-147 554 605 0
-147 553 -605 0
-148 -18 -149 0
-148 18 149 0
148 18 -149 0
148 -18 149 0
149 554 -586 0
149 -554 586 0
-149 -554 -586 0
-149 554 586 0
150 -151 -158 0
150 -151 -156 0
150 -156 -158 0
-150 156 158 0
-150 151 158 0
-150 151 156 0
151 56 -152 0
-151 -56 0
-151 152 0
152 -602 -89 0
152 602 -153 0
-152 602 153 0
-152 -602 89 0
153 -603 -122 0
153 603 -154 0
-153 603 154 0
-153 -603 122 0
154 -604 -139 0
154 604 -155 0
-154 604 155 0
-154 -604 139 0
155 -555 605 0
155 -554 -605 0
-155 555 605 0
-155 554 -605 0
-156 -19 -157 0
-156 19 157 0
156 19 -157 0
156 -19 157 0
157 555 -587 0
157 -555 587 0
-157 -555 -587 0
-157 555 587 0
158 -159 -166 0
158 -159 -164 0
158 -164 -166 0
-158 164 166 0
-158 159 166 0
-158 159 164 0
159 56 -160 0
-159 -56 0
-159 160 0
160 -602 -97 0
160 602 -161 0
-160 602 161 0
-160 -602 97 0
161 -603 -130 0
161 603 -162 0
-161 603 162 0
-161 -603 130 0
162 -604 -147 0
162 604 -163 0
-162 604 163 0
-162 -604 147 0
163 -556 605 0
163 -555 -605 0
-163 556 605 0
-163 555 -605 0
-164 -20 -165 0
-164 20 165 0
164 20 -165 0
164 -20 165 0
165 556 -588 0
165 -556 588 0
-165 -556 -588 0
-165 556 588 0
166 -167 -174 0
166 -167 -172 0
166 -172 -174 0
-166 172 174 0
-166 167 174 0
-166 167 172 0
167 56 -168 0
-167 -56 0
-167 168 0
168 -602 -105 0
168 602 -169 0
-168 602 169 0
-168 -602 105 0
169 -603 -138 0
169 603 -170 0
-169 603 170 0
-169 -603 138 0
170 -604 -155 0
170 604 -171 0
-170 604 171 0
-170 -604 155 0
171 -557 605 0
171 -556 -605 0
-171 557 605 0
-171 556 -605 0
-172 -21 -173 0
-172 21 173 0
172 21 -173 0
172 -21 173 0
173 557 -589 0
173 -557 589 0
-173 -557 -589 0
-173 557 589 0
174 -175 -182 0
174 -175 -180 0
174 -180 -182 0
-174 180 182 0
-174 175 182 0
-174 175 180 0
175 601 57 -176 0
175 -601 -40 57 0
-175 -57 0
-175 -601 40 0
-175 601 176 0
176 -602 -113 0
176 602 -177 0
-176 602 177 0
-176 -602 113 0
177 -603 -146 0
177 603 -178 0
-177 603 178 0
-177 -603 146 0
178 -604 -163 0
178 604 -179 0
-178 604 179 0
-178 -604 163 0
179 -558 605 0
179 -557 -605 0
-179 558 605 0
-179 557 -605 0
-180 -22 -181 0
-180 22 181 0
180 22 -181 0
180 -22 181 0
181 558 -590 0
181 -558 590 0
-181 -558 -590 0
-181 558 590 0
182 -183 -190 0
182 -183 -188 0
182 -188 -190 0
-182 188 190 0
-182 183 190 0
-182 183 188 0
183 601 57 -184 0
183 -601 -53 57 0
-183 -57 0
-183 -601 53 0
-183 601 184 0
184 -602 -121 0
184 602 -185 0
-184 602 185 0
-184 -602 121 0
185 -603 -154 0
185 603 -186 0
-185 603 186 0
-185 -603 154 0
186 -604 -171 0
186 604 -187 0
-186 604 187 0
-186 -604 171 0
187 -559 605 0
187 -558 -605 0
-187 559 605 0
-187 558 -605 0
-188 -23 -189 0
-188 23 189 0
188 23 -189 0
188 -23 189 0
189 559 -591 0
189 -559 591 0
-189 -559 -591 0
-189 559 591 0
190 -191 -198 0
190 -191 -196 0
190 -196 -198 0
-190 196 198 0
-190 191 198 0
-190 191 196 0
191 601 57 -192 0
191 -601 57 -62 0
-191 -57 0
-191 -601 62 0
-191 601 192 0
192 -602 -129 0
192 602 -193 0
-192 602 193 0
-192 -602 129 0
193 -603 -162 0
193 603 -194 0
-193 603 194 0
-193 -603 162 0
194 -604 -179 0
194 604 -195 0
-194 604 195 0
-194 -604 179 0
195 -560 605 0
195 -559 -605 0
-195 560 605 0
-195 559 -605 0
-196 -24 -197 0
-196 24 197 0
196 24 -197 0
196 -24 197 0
197 560 -592 0
197 -560 592 0
-197 -560 -592 0
-197 560 592 0
198 -199 -206 0
198 -199 -204 0
198 -204 -206 0
-198 204 206 0
-198 199 206 0
-198 199 204 0
199 601 57 -200 0
199 -601 57 -70 0
-199 -57 0
-199 -601 70 0
-199 601 200 0
200 -602 -137 0
200 602 -201 0
-200 602 201 0
-200 -602 137 0
201 -603 -170 0
201 603 -202 0
-201 603 202 0
-201 -603 170 0
202 -604 -187 0
202 604 -203 0
-202 604 203 0
-202 -604 187 0
203 -561 605 0
203 -560 -605 0
-203 561 605 0
-203 560 -605 0
-204 -25 -205 0
-204 25 205 0
204 25 -205 0
204 -25 205 0
205 561 -593 0
205 -561 593 0
-205 -561 -593 0
-205 561 593 0
206 -207 -214 0
206 -207 -212 0
206 -212 -214 0
-206 212 214 0
-206 207 214 0
-206 207 212 0
207 601 57 -208 0
207 -601 57 -79 0
-207 -57 0
-207 -601 79 0
-207 601 208 0
208 -602 -145 0
208 602 -209 0
-208 602 209 0
-208 -602 145 0
209 -603 -178 0
209 603 -210 0
-209 603 210 0
-209 -603 178 0
210 -604 -195 0
210 604 -211 0
-210 604 211 0
-210 -604 195 0
211 -562 605 0
211 -561 -605 0
-211 562 605 0
-211 561 -605 0
-212 -26 -213 0
-212 26 213 0
212 26 -213 0
212 -26 213 0
213 562 -594 0
213 -562 594 0
-213 -562 -594 0
-213 562 594 0
214 -215 -222 0
214 -215 -220 0
214 -220 -222 0
-214 220 222 0
-214 215 222 0
-214 215 220 0
215 601 57 -216 0
215 -601 57 -88 0
-215 -57 0
-215 -601 88 0
-215 601 216 0
216 -602 -153 0
216 602 -217 0
-216 602 217 0
-216 -602 153 0
217 -603 -186 0
217 603 -218 0
-217 603 218 0
-217 -603 186 0
218 -604 -203 0
218 604 -219 0
-218 604 219 0
-218 -604 203 0
219 -563 605 0
219 -562 -605 0
-219 563 605 0
-219 562 -605 0
-220 -27 -221 0
-220 27 221 0
220 27 -221 0
220 -27 221 0
221 563 -595 0
221 -563 595 0
-221 -563 -595 0
-221 563 595 0
222 -223 -230 0
222 -223 -228 0
222 -228 -230 0
-222 228 230 0
-222 223 230 0
-222 223 228 0
223 601 57 -224 0
223 -601 57 -96 0
-223 -57 0
-223 -601 96 0
-223 601 224 0
224 -602 -161 0
224 602 -225 0
-224 602 225 0
-224 -602 161 0
225 -603 -194 0
225 603 -226 0
-225 603 226 0
-225 -603 194 0
226 -604 -211 0
226 604 -227 0
-226 604 227 0
-226 -604 211 0
227 -564 605 0
227 -563 -605 0
-227 564 605 0
-227 563 -605 0
-228 -28 -229 0
-228 28 229 0
228 28 -229 0
228 -28 229 0
229 564 -596 0
229 -564 596 0
-229 -564 -596 0
-229 564 596 0
230 -231 -238 0
230 -231 -236 0
230 -236 -238 0
-230 236 238 0
-230 231 238 0
-230 231 236 0
231 601 57 -232 0
231 -601 57 -104 0
-231 -57 0
-231 -601 104 0
-231 601 232 0
232 -602 -169 0
232 602 -233 0
-232 602 233 0
-232 -602 169 0
233 -603 -202 0
233 603 -234 0
-233 603 234 0
-233 -603 202 0
234 -604 -219 0
234 604 -235 0
-234 604 235 0
-234 -604 219 0
235 -565 605 0
235 -564 -605 0
-235 565 605 0
-235 564 -605 0
-236 -29 -237 0
-236 29 237 0
236 29 -237 0
236 -29 237 0
237 565 -597 0
237 -565 597 0
-237 -565 -597 0
-237 565 597 0
238 -239 -246 0
238 -239 -244 0
238 -244 -246 0
-238 244 246 0
-238 239 246 0
-238 239 244 0
239 601 57 -240 0
239 -601 57 -112 0
-239 -57 0
-239 601 240 0
-239 -601 112 0
-240 -602 177 0
-240 602 241 0
240 -602 -177 0
240 602 -241 0
-241 603 242 0
-241 -603 210 0
241 -603 -210 0
241 603 -242 0
242 -604 -227 0
242 604 -243 0
-242 604 243 0
-242 -604 227 0
243 -566 605 0
243 -565 -605 0
-243 566 605 0
-243 565 -605 0
-244 -30 -245 0
-244 30 245 0
244 30 -245 0
244 -30 245 0
245 566 -598 0
245 -566 598 0
-245 -566 -598 0
-245 566 598 0
246 -247 -254 0
246 -247 -252 0
246 -252 -254 0
-246 252 254 0
-246 247 254 0
-246 247 252 0
247 601 57 -248 0
247 -601 57 -120 0
-247 -57 0
-247 601 248 0
-247 -601 120 0
-248 -602 185 0
-248 602 249 0
248 -602 -185 0
248 602 -249 0
-249 603 250 0
-249 -603 218 0
249 -603 -218 0
249 603 -250 0
250 -604 -235 0
250 604 -251 0
-250 604 251 0
-250 -604 235 0
251 -567 605 0
251 -566 -605 0
-251 567 605 0
-251 566 -605 0
-252 -31 -253 0
-252 31 253 0
252 31 -253 0
252 -31 253 0
253 567 -599 0
253 -567 599 0
-253 -567 -599 0
-253 567 599 0
254 -255 -260 0
254 -260 -262 0
254 -255 -262 0
-254 255 262 0
-254 260 262 0
-254 255 260 0
255 601 57 -256 0
255 -601 57 -128 0
-255 -57 0
-255 601 256 0
-255 -601 128 0
-256 -602 193 0
-256 602 257 0
256 -602 -193 0
256 602 -257 0
-257 603 258 0
-257 -603 226 0
257 -603 -226 0
257 603 -258 0
258 -604 -243 0
258 604 -259 0
-258 604 259 0
-258 -604 243 0
259 -568 605 0
259 -567 -605 0
-259 568 605 0
-259 567 -605 0
260 32 -261 0
260 -32 261 0
-260 -32 -261 0
-260 32 261 0
261 568 -600 0
261 -568 600 0
-261 -568 -600 0
-261 568 600 0
262 -263 -268 0
262 -268 -270 0
262 -263 -270 0
-262 263 270 0
-262 268 270 0
-262 263 268 0
263 601 57 -264 0
263 -601 57 -136 0
-263 -57 0
-263 601 264 0
-263 -601 136 0
-264 -602 201 0
-264 602 265 0
264 -602 -201 0
264 602 -265 0
-265 603 266 0
-265 -603 234 0
265 -603 -234 0
265 603 -266 0
266 -604 -251 0
266 604 -267 0
-266 604 267 0
-266 -604 251 0
267 -569 605 0
267 -568 -605 0
-267 569 605 0
-267 568 -605 0
268 33 -269 0
268 -33 269 0
-268 -33 -269 0
-268 33 269 0
269 569 -601 0
269 -569 601 0
-269 -569 -601 0
-269 569 601 0
270 -271 -276 0
270 -276 -278 0
270 -271 -278 0
-270 271 278 0
-270 276 278 0
-270 271 276 0
271 601 57 -272 0
271 -601 57 -144 0
-271 -57 0
-271 601 272 0
-271 -601 144 0
-272 -602 209 0
-272 602 273 0
272 -602 -209 0
272 602 -273 0
-273 -603 242 0
-273 603 274 0
273 -603 -242 0
273 603 -274 0
-274 604 275 0
-274 -604 259 0
274 -604 -259 0
274 604 -275 0
275 -570 605 0
275 -569 -605 0
-275 570 605 0
-275 569 -605 0
276 34 -277 0
276 -34 277 0
-276 -34 -277 0
-276 34 277 0
277 570 -602 0
277 -570 602 0
-277 -570 -602 0
-277 570 602 0
278 -279 -284 0
278 -284 -286 0
278 -279 -286 0
-278 279 286 0
-278 284 286 0
-278 279 284 0
279 601 57 -280 0
279 -601 57 -152 0
-279 -57 0
-279 601 280 0
-279 -601 152 0
-280 -602 217 0
-280 602 281 0
280 -602 -217 0
280 602 -281 0
-281 -603 250 0
-281 603 282 0
281 -603 -250 0
281 603 -282 0
-282 604 283 0
-282 -604 267 0
282 -604 -267 0
282 604 -283 0
283 -571 605 0
283 -570 -605 0
-283 571 605 0
-283 570 -605 0
284 35 -285 0
284 -35 285 0
-284 -35 -285 0
-284 35 285 0
285 571 -603 0
285 -571 603 0
-285 -571 -603 0
-285 571 603 0
286 -287 -292 0
286 -292 -294 0
286 -287 -294 0
-286 287 294 0
-286 292 294 0
-286 287 292 0
287 601 57 -288 0
287 -601 57 -160 0
-287 -57 0
-287 601 288 0
-287 -601 160 0
-288 -602 225 0
-288 602 289 0
288 -602 -225 0
288 602 -289 0
-289 -603 258 0
-289 603 290 0
289 -603 -258 0
289 603 -290 0
-290 604 291 0
-290 -604 275 0
290 -604 -275 0
290 604 -291 0
291 -572 605 0
291 -571 -605 0
-291 572 605 0
-291 571 -605 0
292 36 -293 0
292 -36 293 0
-292 -36 -293 0
-292 36 293 0
293 572 -604 0
293 -572 604 0
-293 -572 -604 0
-293 572 604 0
294 573 -605 -295 0
294 -573 605 -295 0
-294 295 0
-294 573 605 0
-294 -573 -605 0
295 601 57 -296 0
295 -601 57 -168 0
-295 -57 0
-295 601 296 0
-295 -601 168 0
-296 -602 233 0
-296 602 297 0
296 -602 -233 0
296 602 -297 0
-297 -603 266 0
-297 603 298 0
297 -603 -266 0
297 603 -298 0
-298 604 299 0
-298 -604 283 0
298 -604 -283 0
298 604 -299 0
299 -573 605 0
299 -572 -605 0
-299 573 605 0
-299 572 -605 0
300 301 -422 0
300 -301 422 0
-300 -301 -422 0
-300 301 422 0
301 -543 -302 0
301 -302 -359 0
301 -543 -359 0
-301 543 359 0
-301 302 359 0
-301 543 302 0
302 303 -304 0
302 -303 304 0
-302 -303 -304 0
-302 303 304 0
-303 575 52 0
303 -575 0
303 -52 0
304 -305 -306 0
-304 305 0
-304 306 0
-305 576 61 0
305 -576 0
305 -61 0
306 -307 -308 0
-306 307 0
-306 308 0
-307 577 69 0
307 -577 0
307 -69 0
308 -309 -310 0
-308 309 0
-308 310 0
-309 578 78 0
309 -578 0
309 -78 0
310 -311 -312 0
-310 311 0
-310 312 0
-311 579 87 0
311 -579 0
311 -87 0
312 -313 -314 0
-312 313 0
-312 314 0
-313 580 95 0
313 -580 0
313 -95 0
314 -315 -316 0
-314 315 0
-314 316 0
-315 581 103 0
315 -581 0
315 -103 0
316 -317 -318 0
-316 317 0
-316 318 0
-317 582 111 0
317 -582 0
317 -111 0
318 -319 -320 0
-318 319 0
-318 320 0
-319 583 119 0
319 -583 0
319 -119 0
320 -321 -322 0
-320 321 0
-320 322 0
-321 584 127 0
321 -584 0
321 -127 0
322 -323 -324 0
-322 323 0
-322 324 0
-323 585 135 0
323 -585 0
323 -135 0
324 -325 -326 0
-324 325 0
-324 326 0
-325 586 143 0
325 -586 0
325 -143 0
326 -327 -328 0
-326 327 0
-326 328 0
-327 587 151 0
327 -587 0
327 -151 0
328 -329 -330 0
-328 329 0
-328 330 0
-329 588 159 0
329 -588 0
329 -159 0
330 -331 -332 0
-330 331 0
-330 332 0
-331 589 167 0
331 -589 0
331 -167 0
332 -333 -334 0
-332 333 0
-332 334 0
-333 590 175 0
333 -590 0
333 -175 0
334 -335 -336 0
-334 335 0
-334 336 0
-335 591 183 0
335 -591 0
335 -183 0
336 -337 -338 0
-336 337 0
-336 338 0
-337 592 191 0
337 -592 0
337 -191 0
338 -339 -340 0
-338 339 0
-338 340 0
-339 593 199 0
339 -593 0
339 -199 0
340 -341 -342 0
-340 341 0
-340 342 0
-341 594 207 0
341 -594 0
341 -207 0
342 -343 -344 0
-342 343 0
-342 344 0
-343 595 215 0
343 -595 0
343 -215 0
344 -345 -346 0
-344 345 0
-344 346 0
-345 596 223 0
345 -596 0
345 -223 0
346 -347 -348 0
-346 347 0
-346 348 0
-347 597 231 0
347 -597 0
347 -231 0
348 -349 -350 0
-348 349 0
-348 350 0
-349 598 239 0
349 -598 0
349 -239 0
350 -351 -352 0
-350 351 0
-350 352 0
-351 599 247 0
351 -599 0
351 -247 0
352 -353 -354 0
-352 353 0
-352 354 0
-353 600 255 0
353 -600 0
353 -255 0
354 -601 -263 0
354 -263 -355 0
354 -601 -355 0
-354 601 355 0
-354 263 355 0
-354 601 263 0
355 -602 -271 0
355 -271 -356 0
355 -602 -356 0
-355 602 356 0
-355 271 356 0
-355 602 271 0
356 -603 -279 0
356 -279 -357 0
356 -603 -357 0
-356 603 357 0
-356 279 357 0
-356 603 279 0
357 -604 -287 0
357 -287 -358 0
357 -604 -358 0
-357 604 358 0
-357 287 358 0
-357 604 287 0
358 -605 -295 0
-358 605 0
-358 295 0
359 -544 -360 0
359 -360 -361 0
359 -544 -361 0
-359 544 361 0
-359 360 361 0
-359 544 360 0
360 305 -306 0
360 -305 306 0
-360 -305 -306 0
-360 305 306 0
361 -545 -363 0
361 -545 -362 0
361 -362 -363 0
-361 362 363 0
-361 545 363 0
-361 545 362 0
-362 -307 -308 0
-362 307 308 0
362 307 -308 0
362 -307 308 0
363 -546 -365 0
363 -546 -364 0
363 -364 -365 0
-363 364 365 0
-363 546 365 0
-363 546 364 0
-364 -309 -310 0
-364 309 310 0
364 309 -310 0
364 -309 310 0
365 -547 -367 0
365 -547 -366 0
365 -366 -367 0
-365 366 367 0
-365 547 367 0
-365 547 366 0
-366 -311 -312 0
-366 311 312 0
366 311 -312 0
366 -311 312 0
367 -548 -369 0
367 -548 -368 0
367 -368 -369 0
-367 368 369 0
-367 548 369 0
-367 548 368 0
-368 -313 -314 0
-368 313 314 0
368 313 -314 0
368 -313 314 0
369 -549 -371 0
369 -549 -370 0
369 -370 -371 0
-369 370 371 0
-369 549 371 0
-369 549 370 0
-370 -315 -316 0
-370 315 316 0
370 315 -316 0
370 -315 316 0
371 -550 -373 0
371 -550 -372 0
371 -372 -373 0
-371 372 373 0
-371 550 373 0
-371 550 372 0
-372 -317 -318 0
-372 317 318 0
372 317 -318 0
372 -317 318 0
373 -551 -375 0
373 -551 -374 0
373 -374 -375 0
-373 374 375 0
-373 551 375 0
-373 551 374 0
-374 -319 -320 0
-374 319 320 0
374 319 -320 0
374 -319 320 0
375 -552 -377 0
375 -552 -376 0
375 -376 -377 0
-375 376 377 0
-375 552 377 0
-375 552 376 0
-376 -321 -322 0
-376 321 322 0
376 321 -322 0
376 -321 322 0
377 -553 -379 0
377 -553 -378 0
377 -378 -379 0
-377 378 379 0
-377 553 379 0
-377 553 378 0
-378 -323 -324 0
-378 323 324 0
378 323 -324 0
378 -323 324 0
379 -554 -381 0
379 -554 -380 0
379 -380 -381 0
-379 380 381 0
-379 554 381 0
-379 554 380 0
-380 -325 -326 0
-380 325 326 0
380 325 -326 0
380 -325 326 0
381 -555 -383 0
381 -555 -382 0
381 -382 -383 0
-381 382 383 0
-381 555 383 0
-381 555 382 0
-382 -327 -328 0
-382 327 328 0
382 327 -328 0
382 -327 328 0
383 -556 -385 0
383 -556 -384 0
383 -384 -385 0
-383 384 385 0
-383 556 385 0
-383 556 384 0
-384 -329 -330 0
-384 329 330 0
384 329 -330 0
384 -329 330 0
385 -557 -387 0
385 -557 -386 0
385 -386 -387 0
-385 386 387 0
-385 557 387 0
-385 557 386 0
-386 -331 -332 0
-386 331 332 0
386 331 -332 0
386 -331 332 0
387 -558 -389 0
387 -558 -388 0
387 -388 -389 0
-387 388 389 0
-387 558 389 0
-387 558 388 0
-388 -333 -334 0
-388 333 334 0
388 333 -334 0
388 -333 334 0
389 -559 -391 0
389 -559 -390 0
389 -390 -391 0
-389 390 391 0
-389 559 391 0
-389 559 390 0
-390 -335 -336 0
-390 335 336 0
390 335 -336 0
390 -335 336 0
391 -560 -393 0
391 -560 -392 0
391 -392 -393 0
-391 392 393 0
-391 560 393 0
-391 560 392 0
-392 -337 -338 0
-392 337 338 0
392 337 -338 0
392 -337 338 0
393 -561 -395 0
393 -561 -394 0
393 -394 -395 0
-393 394 395 0
-393 561 395 0
-393 561 394 0
-394 -339 -340 0
-394 339 340 0
394 339 -340 0
394 -339 340 0
395 -562 -397 0
395 -562 -396 0
395 -396 -397 0
-395 396 397 0
-395 562 397 0
-395 562 396 0
-396 -341 -342 0
-396 341 342 0
396 341 -342 0
396 -341 342 0
397 -563 -399 0
397 -563 -398 0
397 -398 -399 0
-397 398 399 0
-397 563 399 0
-397 563 398 0
-398 -343 -344 0
-398 343 344 0
398 343 -344 0
398 -343 344 0
399 -564 -401 0
399 -564 -400 0
399 -400 -401 0
-399 400 401 0
-399 564 401 0
-399 564 400 0
-400 -345 -346 0
-400 345 346 0
400 345 -346 0
400 -345 346 0
401 -565 -403 0
401 -565 -402 0
401 -402 -403 0
-401 402 403 0
-401 565 403 0
-401 565 402 0
-402 -347 -348 0
-402 347 348 0
402 347 -348 0
402 -347 348 0
403 -566 -405 0
403 -566 -404 0
403 -404 -405 0
-403 404 405 0
-403 566 405 0
-403 566 404 0
-404 -349 -350 0
-404 349 350 0
404 349 -350 0
404 -349 350 0
405 -567 -407 0
405 -567 -406 0
405 -406 -407 0
-405 406 407 0
-405 567 407 0
-405 567 406 0
-406 -351 -352 0
-406 351 352 0
406 351 -352 0
406 -351 352 0
407 -568 -408 0
407 -408 -409 0
407 -568 -409 0
-407 568 409 0
-407 408 409 0
-407 568 408 0
408 353 -354 0
408 -353 354 0
-408 -353 -354 0
-408 353 354 0
409 -569 -410 0
409 -410 -412 0
409 -569 -412 0
-409 569 412 0
-409 410 412 0
-409 569 410 0
410 355 -411 0
410 -355 411 0
-410 -355 -411 0
-410 355 411 0
411 601 -263 0
411 -601 263 0
-411 -601 -263 0
-411 601 263 0
412 -570 -413 0
412 -413 -415 0
412 -570 -415 0
-412 570 415 0
-412 413 415 0
-412 570 413 0
413 356 -414 0
413 -356 414 0
-413 -356 -414 0
-413 356 414 0
414 602 -271 0
414 -602 271 0
-414 -602 -271 0
-414 602 271 0
415 -571 -416 0
415 -416 -418 0
415 -571 -418 0
-415 571 418 0
-415 416 418 0
-415 571 416 0
416 357 -417 0
416 -357 417 0
-416 -357 -417 0
-416 357 417 0
417 603 -279 0
417 -603 279 0
-417 -603 -279 0
-417 603 279 0
418 -572 -419 0
418 -419 -421 0
418 -572 -421 0
-418 572 421 0
-418 419 421 0
-418 572 419 0
419 358 -420 0
419 -358 420 0
-419 -358 -420 0
-419 358 420 0
420 604 -287 0
420 -604 287 0
-420 -604 -287 0
-420 604 287 0
421 -573 605 -295 0
421 -573 -605 295 0
-421 573 0
-421 -605 -295 0
-421 605 295 0
422 -37 423 0
-422 37 0
-422 -423 0
423 -303 -304 0
-423 303 0
-423 304 0
424 60 -425 0
424 -60 425 0
-424 -60 -425 0
-424 60 425 0
425 -52 58 0
425 52 -58 0
-425 52 58 0
-425 -52 -58 0
426 359 -427 0
426 -359 427 0
-426 -359 -427 0
-426 359 427 0
427 543 -302 0
427 -543 302 0
-427 -543 -302 0
-427 543 302 0
-428 429 434 436 438 0
-428 429 -434 -436 438 0
428 -438 0
428 -434 436 0
428 -429 0
428 434 -436 0
429 430 -432 0
429 -430 432 0
-429 -430 -432 0
-429 430 432 0
430 68 -431 0
430 -68 431 0
-430 -68 -431 0
-430 68 431 0
431 -61 66 0
431 61 -66 0
-431 61 66 0
-431 -61 -66 0
432 361 -433 0
432 -361 433 0
-432 -361 -433 0
-432 361 433 0
433 544 -360 0
433 -544 360 0
-433 -544 -360 0
-433 544 360 0
434 77 -435 0
434 -77 435 0
-434 -77 -435 0
-434 77 435 0
435 -69 75 0
435 69 -75 0
-435 69 75 0
-435 -69 -75 0
436 363 -437 0
436 -363 437 0
-436 -363 -437 0
-436 363 437 0
437 -545 362 0
437 545 -362 0
-437 545 362 0
-437 -545 -362 0
-438 439 444 446 448 0
-438 439 -444 -446 448 0
438 -448 0
438 -444 446 0
438 -439 0
438 444 -446 0
439 440 -442 0
439 -440 442 0
-439 -440 -442 0
-439 440 442 0
440 86 -441 0
440 -86 441 0
-440 -86 -441 0
-440 86 441 0
441 -78 84 0
441 78 -84 0
-441 78 84 0
-441 -78 -84 0
442 365 -443 0
442 -365 443 0
-442 -365 -443 0
-442 365 443 0
443 -546 364 0
443 546 -364 0
-443 546 364 0
-443 -546 -364 0
444 94 -445 0
444 -94 445 0
-444 -94 -445 0
-444 94 445 0
445 -87 92 0
445 87 -92 0
-445 87 92 0
-445 -87 -92 0
446 367 -447 0
446 -367 447 0
-446 -367 -447 0
-446 367 447 0
447 -547 366 0
447 547 -366 0
-447 547 366 0
-447 -547 -366 0
-448 449 454 456 458 0
-448 449 -454 -456 458 0
448 -458 0
448 -454 456 0
448 -449 0
448 454 -456 0
449 450 -452 0
449 -450 452 0
-449 -450 -452 0
-449 450 452 0
450 102 -451 0
450 -102 451 0
-450 -102 -451 0
-450 102 451 0
451 -95 100 0
451 95 -100 0
-451 95 100 0
-451 -95 -100 0
452 369 -453 0
452 -369 453 0
-452 -369 -453 0
-452 369 453 0
453 -548 368 0
453 548 -368 0
-453 548 368 0
-453 -548 -368 0
454 110 -455 0
454 -110 455 0
-454 -110 -455 0
-454 110 455 0
455 -103 108 0
455 103 -108 0
-455 103 108 0
-455 -103 -108 0
456 371 -457 0
456 -371 457 0
-456 -371 -457 0
-456 371 457 0
457 -549 370 0
457 549 -370 0
-457 549 370 0
-457 -549 -370 0
-458 459 461 463 468 0
-458 -459 -461 463 468 0
458 -463 0
458 459 -461 0
458 -468 0
458 -459 461 0
459 118 -460 0
459 -118 460 0
-459 -118 -460 0
-459 118 460 0
460 -111 116 0
460 111 -116 0
-460 111 116 0
-460 -111 -116 0
461 373 -462 0
461 -373 462 0
-461 -373 -462 0
-461 373 462 0
462 -550 372 0
462 550 -372 0
-462 550 372 0
-462 -550 -372 0
463 464 -466 0
463 -464 466 0
-463 -464 -466 0
-463 464 466 0
464 126 -465 0
464 -126 465 0
-464 -126 -465 0
-464 126 465 0
465 -119 124 0
465 119 -124 0
-465 119 124 0
-465 -119 -124 0
466 375 -467 0
466 -375 467 0
-466 -375 -467 0
-466 375 467 0
467 -551 374 0
467 551 -374 0
-467 551 374 0
-467 -551 -374 0
-468 469 474 476 478 0
-468 469 -474 -476 478 0
468 -478 0
468 -474 476 0
468 -469 0
468 474 -476 0
469 470 -472 0
469 -470 472 0
-469 -470 -472 0
-469 470 472 0
470 134 -471 0
470 -134 471 0
-470 -134 -471 0
-470 134 471 0
471 -127 132 0
471 127 -132 0
-471 127 132 0
-471 -127 -132 0
472 377 -473 0
472 -377 473 0
-472 -377 -473 0
-472 377 473 0
473 -552 376 0
473 552 -376 0
-473 552 376 0
-473 -552 -376 0
474 142 -475 0
474 -142 475 0
-474 -142 -475 0
-474 142 475 0
475 -135 140 0
475 135 -140 0
-475 135 140 0
-475 -135 -140 0
476 379 -477 0
476 -379 477 0
-476 -379 -477 0
-476 379 477 0
477 -553 378 0
477 553 -378 0
-477 553 378 0
-477 -553 -378 0
-478 479 484 486 488 0
-478 479 -484 -486 488 0
478 -488 0
478 -484 486 0
478 -479 0
478 484 -486 0
479 480 -482 0
479 -480 482 0
-479 -480 -482 0
-479 480 482 0
480 150 -481 0
480 -150 481 0
-480 -150 -481 0
-480 150 481 0
481 -143 148 0
481 143 -148 0
-481 143 148 0
-481 -143 -148 0
482 381 -483 0
482 -381 483 0
-482 -381 -483 0
-482 381 483 0
483 -554 380 0
483 554 -380 0
-483 554 380 0
-483 -554 -380 0
484 158 -485 0
484 -158 485 0
-484 -158 -485 0
-484 158 485 0
485 -151 156 0
485 151 -156 0
-485 151 156 0
-485 -151 -156 0
486 383 -487 0
486 -383 487 0
-486 -383 -487 0
-486 383 487 0
487 -555 382 0
487 555 -382 0
-487 555 382 0
-487 -555 -382 0
-488 489 491 493 498 0
-488 -489 -491 493 498 0
488 -493 0
488 489 -491 0
488 -498 0
488 -489 491 0
489 166 -490 0
489 -166 490 0
-489 -166 -490 0
-489 166 490 0
490 -159 164 0
490 159 -164 0
-490 159 164 0
-490 -159 -164 0
491 385 -492 0
491 -385 492 0
-491 -385 -492 0
-491 385 492 0
492 -556 384 0
492 556 -384 0
-492 556 384 0
-492 -556 -384 0
493 494 -496 0
493 -494 496 0
-493 -494 -496 0
-493 494 496 0
494 174 -495 0
494 -174 495 0
-494 -174 -495 0
-494 174 495 0
495 -167 172 0
495 167 -172 0
-495 167 172 0
-495 -167 -172 0
496 387 -497 0
496 -387 497 0
-496 -387 -497 0
-496 387 497 0
497 -557 386 0
497 557 -386 0
-497 557 386 0
-497 -557 -386 0
-498 499 501 503 508 0
-498 -499 -501 503 508 0
498 -503 0
498 499 -501 0
498 -508 0
498 -499 501 0
499 182 -500 0
499 -182 500 0
-499 -182 -500 0
-499 182 500 0
500 -175 180 0
500 175 -180 0
-500 175 180 0
-500 -175 -180 0
501 389 -502 0
501 -389 502 0
-501 -389 -502 0
-501 389 502 0
502 -558 388 0
502 558 -388 0
-502 558 388 0
-502 -558 -388 0
503 504 -506 0
503 -504 506 0
-503 -504 -506 0
-503 504 506 0
504 190 -505 0
504 -190 505 0
-504 -190 -505 0
-504 190 505 0
505 -183 188 0
505 183 -188 0
-505 183 188 0
-505 -183 -188 0
506 391 -507 0
506 -391 507 0
-506 -391 -507 0
-506 391 507 0
507 -559 390 0
507 559 -390 0
-507 559 390 0
-507 -559 -390 0
-508 509 514 516 518 0
-508 509 -514 -516 518 0
508 -518 0
508 -514 516 0
508 -509 0
508 514 -516 0
509 510 -512 0
509 -510 512 0
-509 -510 -512 0
-509 510 512 0
510 198 -511 0
510 -198 511 0
-510 -198 -511 0
-510 198 511 0
511 -191 196 0
511 191 -196 0
-511 191 196 0
-511 -191 -196 0
512 393 -513 0
512 -393 513 0
-512 -393 -513 0
-512 393 513 0
513 -560 392 0
513 560 -392 0
-513 560 392 0
-513 -560 -392 0
514 206 -515 0
514 -206 515 0
-514 -206 -515 0
-514 206 515 0
515 -199 204 0
515 199 -204 0
-515 199 204 0
-515 -199 -204 0
516 395 -517 0
516 -395 517 0
-516 -395 -517 0
-516 395 517 0
517 -561 394 0
517 561 -394 0
-517 561 394 0
-517 -561 -394 0
-518 519 521 523 528 0
-518 -519 -521 523 528 0
518 -523 0
518 519 -521 0
518 -528 0
518 -519 521 0
519 214 -520 0
519 -214 520 0
-519 -214 -520 0
-519 214 520 0
520 -207 212 0
520 207 -212 0
-520 207 212 0
-520 -207 -212 0
521 397 -522 0
521 -397 522 0
-521 -397 -522 0
-521 397 522 0
522 -562 396 0
522 562 -396 0
-522 562 396 0
-522 -562 -396 0
523 524 -526 0
523 -524 526 0
-523 -524 -526 0
-523 524 526 0
524 222 -525 0
524 -222 525 0
-524 -222 -525 0
-524 222 525 0
525 -215 220 0
525 215 -220 0
-525 215 220 0
-525 -215 -220 0
526 399 -527 0
526 -399 527 0
-526 -399 -527 0
-526 399 527 0
527 -563 398 0
527 563 -398 0
-527 563 398 0
-527 -563 -398 0
-528 -529 -531 533 0
-528 529 531 533 0
528 -533 0
528 -529 531 0
528 529 -531 0
529 230 -530 0
529 -230 530 0
-529 -230 -530 0
-529 230 530 0
530 -223 228 0
530 223 -228 0
-530 223 228 0
-530 -223 -228 0
531 401 -532 0
531 -401 532 0
-531 -401 -532 0
-531 401 532 0
532 -564 400 0
532 564 -400 0
-532 564 400 0
-532 -564 -400 0
-533 534 536 -538 -540 0
-533 -534 -536 -538 -540 0
-533 534 536 538 540 0
-533 -534 -536 538 540 0
533 534 -536 0
533 -534 536 0
533 538 -540 0
533 -538 540 0
534 238 -535 0
534 -238 535 0
-534 -238 -535 0
-534 238 535 0
535 -231 236 0
535 231 -236 0
-535 231 236 0
-535 -231 -236 0
536 403 -537 0
536 -403 537 0
-536 -403 -537 0
-536 403 537 0
537 -565 402 0
537 565 -402 0
-537 565 402 0
-537 -565 -402 0
538 246 -539 0
538 -246 539 0
-538 -246 -539 0
-538 246 539 0
539 -239 244 0
539 239 -244 0
-539 239 244 0
-539 -239 -244 0
540 405 -541 0
540 -405 541 0
-540 -405 -541 0
-540 405 541 0
541 -566 404 0
541 566 -404 0
-541 566 404 0
-541 -566 -404 0
-606 0
2 0

